(set-logic QF_BV)
(declare-fun _substvar_167_ () Bool)
(declare-fun _substvar_73_ () (_ BitVec 143))
(declare-fun _substvar_99_ () (_ BitVec 143))
(declare-fun _substvar_114_ () (_ BitVec 143))
(declare-fun _substvar_108_ () (_ BitVec 143))
(assert (and true true true true true true true true true true true true true true true true true true true true true true true true true true true true true true true true true true true true true true true true true true true true true true true true true true true true true true true true true true true true true true true true true true true true true true true true true true true true true true true true true true true true true true true true true true true true (= _substvar_114_ (_ bv0 143)) (ite _substvar_167_ (= _substvar_99_ (_ bv0 143)) (= _substvar_99_ (concat (_ bv0 142) (bvxor (_ bv0 1) ((_ extract 121 121) _substvar_114_))))) (= _substvar_108_ (concat ((_ extract 141 0) _substvar_99_) (bvxor (bvxor (bvxor ((_ extract 142 142) _substvar_99_) (_ bv0 1)) (_ bv0 1)) ((_ extract 121 121) _substvar_99_)))) (= _substvar_73_ (concat ((_ extract 141 0) _substvar_108_) (_ bv0 1))) true true true (= (= (_ bv0 143) _substvar_73_) false)))
(check-sat)
(exit)
